<number of tasks>
89

<cycle time>
18

<task times>
1 1
2 2
3 3
4 4
5 5
6 6
7 7
8 8
9 9
10 10
11 1
12 2
13 3
14 4
15 5
16 6
17 7
18 8
19 9
20 10
21 1
22 2
23 3
24 4
25 5
26 6
27 7
28 8
29 9
30 10
31 1
32 2
33 3
34 4
35 5
36 6
37 7
38 8
39 9
40 10
41 1
42 2
43 3
44 4
45 5
46 6
47 7
48 8
49 9
50 10
51 1
52 2
53 3
54 4
55 5
56 6
57 7
58 8
59 9
60 10
61 1
62 2
63 3
64 4
65 5
66 6
67 7
68 8
69 9
70 10
71 1
72 2
73 3
74 4
75 5
76 6
77 7
78 8
79 9
80 10
81 1
82 2
83 3
84 4
85 5
86 6
87 7
88 8
89 9

<task process alternatives>
1: 1,15 ; 2,8
2: 2,15 ; 3,8
3: 3,15 ; 4,8
4: 4,15 ; 5,8
5: 4,15 ; 6,8
6: 5,15 ; 8,8
7: 6,15 ; 9,8
8: 7,15 ; 10,8
9: 8,15 ; 11,8
10: 8,15 ; 12,8
11: 1,15 ; 2,8
12: 2,15 ; 3,8
13: 3,15 ; 4,8
14: 4,15 ; 5,8
15: 4,15 ; 6,8
16: 5,15 ; 8,8
17: 6,15 ; 9,8
18: 7,15 ; 10,8
19: 8,15 ; 11,8
20: 8,15 ; 12,8
21: 1,15 ; 2,8
22: 2,15 ; 3,8
23: 3,15 ; 4,8
24: 4,15 ; 5,8
25: 4,15 ; 6,8
26: 5,15 ; 8,8
27: 6,15 ; 9,8
28: 7,15 ; 10,8
29: 8,15 ; 11,8
30: 8,15 ; 12,8
31: 1,15 ; 2,8
32: 2,15 ; 3,8
33: 3,15 ; 4,8
34: 4,15 ; 5,8
35: 4,15 ; 6,8
36: 5,15 ; 8,8
37: 6,15 ; 9,8
38: 7,15 ; 10,8
39: 8,15 ; 11,8
40: 8,15 ; 12,8
41: 1,15 ; 2,8
42: 2,15 ; 3,8
43: 3,15 ; 4,8
44: 4,15 ; 5,8
45: 4,15 ; 6,8
46: 5,15 ; 8,8
47: 6,15 ; 9,8
48: 7,15 ; 10,8
49: 8,15 ; 11,8
50: 8,15 ; 12,8
51: 1,15 ; 2,8
52: 2,15 ; 3,8
53: 3,15 ; 4,8
54: 4,15 ; 5,8
55: 4,15 ; 6,8
56: 5,15 ; 8,8
57: 6,15 ; 9,8
58: 7,15 ; 10,8
59: 8,15 ; 11,8
60: 8,15 ; 12,8
61: 1,15 ; 2,8
62: 2,15 ; 3,8
63: 3,15 ; 4,8
64: 4,15 ; 5,8
65: 4,15 ; 6,8
66: 5,15 ; 8,8
67: 6,15 ; 9,8
68: 7,15 ; 10,8
69: 8,15 ; 11,8
70: 8,15 ; 12,8
71: 1,15 ; 2,8
72: 2,15 ; 3,8
73: 3,15 ; 4,8
74: 4,15 ; 5,8
75: 4,15 ; 6,8
76: 5,15 ; 8,8
77: 6,15 ; 9,8
78: 7,15 ; 10,8
79: 8,15 ; 11,8
80: 8,15 ; 12,8
81: 1,15 ; 2,8
82: 2,15 ; 3,8
83: 3,15 ; 4,8
84: 4,15 ; 5,8
85: 4,15 ; 6,8
86: 5,15 ; 8,8
87: 6,15 ; 9,8
88: 7,15 ; 10,8
89: 8,15 ; 11,8

<incompatible tasks>
59,23
83,9
8,61
18,12
33,41
89,2
55,32
70,19
2,65
88,4
76,48
30,12
55,27

<precedence relations>
53,69
81,85
4,9
87,89
5,10
39,42
8,18
57,66
6,11
79,81
18,19
53,71
73,74
14,15
57,59
74,75
7,12
47,48
62,67
25,27
35,37
38,39
80,81
57,61
85,86
81,82
25,29
12,13
22,23
77,78
65,67
49,50
57,63
68,72
13,14
45,46
55,56
50,51
53,68
81,84
82,83
30,54
51,52
29,31
20,28
46,47
39,41
23,24
58,67
78,79
84,86
57,65
21,54
27,33
76,81
24,25
56,57
53,70
20,21
41,53
52,53
57,58
19,22
36,38
25,26
4,6
14,16
31,32
86,87
61,67
40,44
17,18
54,55
47,49
63,67
43,45
4,8
70,72
87,88
75,77
1,2
10,14
28,29
71,73
39,43
2,3
9,18
83,86
3,4
18,20
35,36
59,67
57,60
74,76
15,17
32,33
72,78
4,5
67,73
42,53
60,67
57,62
37,38
33,34
64,67
72,80
4,7
26,37
69,72
44,52
39,40
16,54
34,35
11,12
57,64
66,67

<linked tasks>
1,4
16,34
21,32
25,26
28,31
32,34
40,41
42,57
44,63

<optimal SALBP-1 value>
28

<rand seed>
236278236

<end>
